p wcnf 140 1600
8 -135 -137 0
6 -134 136 0
7 -132 140 0
3 -131 136 0
5 -130 -132 0
8 -129 -136 0
5 -129 -130 0
5 -129 138 0
1 -128 -134 0
10 -125 -133 0
5 -124 -133 0
4 -123 136 0
8 -122 -125 0
9 -121 -138 0
4 -121 124 0
3 -121 134 0
8 -121 138 0
5 -120 -130 0
3 -120 125 0
9 -119 120 0
7 -118 -140 0
4 -117 -137 0
10 -117 -119 0
9 -117 -118 0
3 -116 -131 0
2 -116 123 0
5 -116 132 0
9 -115 131 0
5 -114 -137 0
6 -114 -115 0
5 -114 133 0
3 -113 128 0
2 -112 -139 0
3 -112 -136 0
5 -112 116 0
6 -112 126 0
1 -111 113 0
9 -111 115 0
1 -109 -137 0
1 -109 110 0
9 -108 -130 0
5 -108 -126 0
4 -108 -111 0
7 -108 -110 0
4 -108 -109 0
8 -108 130 0
9 -108 137 0
2 -107 -132 0
3 -107 -112 0
2 -107 109 0
1 -107 137 0
9 -105 -125 0
5 -105 107 0
10 -105 109 0
8 -105 114 0
7 -105 118 0
2 -105 130 0
3 -105 139 0
6 -104 107 0
6 -104 135 0
8 -103 -120 0
2 -103 -107 0
8 -103 116 0
9 -103 134 0
3 -103 140 0
3 -102 -106 0
5 -102 112 0
3 -102 127 0
3 -101 -132 0
6 -101 102 0
4 -100 -129 0
2 -100 -115 0
9 -100 120 0
7 -99 -138 0
8 -99 -123 0
4 -99 112 0
4 -99 121 0
7 -99 124 0
5 -98 105 0
6 -98 133 0
7 -97 -132 0
5 -97 98 0
5 -97 102 0
2 -97 103 0
4 -97 123 0
3 -97 133 0
8 -96 124 0
5 -96 137 0
6 -95 -135 0
4 -95 -120 0
1 -95 110 0
4 -95 116 0
5 -95 136 0
8 -94 -118 0
3 -94 -97 0
7 -94 98 0
2 -94 99 0
7 -94 103 0
9 -94 125 0
3 -93 -138 0
3 -93 -120 0
3 -93 -113 0
5 -93 -97 0
2 -93 118 0
8 -93 126 0
3 -92 -138 0
5 -92 -96 0
3 -92 123 0
8 -92 130 0
9 -91 106 0
8 -90 -116 0
6 -90 -112 0
3 -90 120 0
3 -89 -117 0
7 -89 -102 0
6 -89 95 0
5 -89 96 0
4 -89 117 0
2 -88 -126 0
1 -88 -111 0
7 -88 -105 0
2 -88 -89 0
4 -88 98 0
2 -88 107 0
9 -88 118 0
6 -87 -91 0
8 -87 110 0
10 -87 131 0
3 -87 137 0
7 -86 89 0
3 -86 93 0
5 -86 105 0
8 -86 120 0
7 -86 139 0
6 -85 -130 0
7 -85 -91 0
8 -85 94 0
1 -85 119 0
8 -85 130 0
7 -84 -105 0
9 -84 -104 0
7 -84 -100 0
2 -84 113 0
2 -83 -121 0
9 -83 100 0
8 -83 103 0
8 -83 106 0
4 -83 118 0
2 -82 107 0
8 -82 116 0
4 -82 127 0
8 -82 136 0
9 -81 -116 0
7 -81 -95 0
9 -81 90 0
8 -81 92 0
3 -81 140 0
7 -80 -140 0
8 -80 98 0
5 -79 -122 0
4 -79 -121 0
10 -79 80 0
9 -79 83 0
2 -79 90 0
6 -79 96 0
5 -79 114 0
8 -79 121 0
5 -78 -124 0
6 -78 111 0
6 -78 120 0
2 -77 -130 0
5 -77 -129 0
3 -77 -124 0
3 -77 -116 0
6 -77 -107 0
2 -77 -106 0
10 -77 89 0
4 -77 104 0
5 -76 96 0
2 -76 99 0
2 -75 -134 0
8 -75 85 0
10 -75 92 0
9 -75 137 0
5 -74 -101 0
9 -74 121 0
7 -74 140 0
7 -73 -115 0
6 -73 -109 0
5 -73 -100 0
2 -73 129 0
9 -73 131 0
5 -72 -102 0
10 -72 106 0
1 -71 -123 0
1 -71 -96 0
5 -71 -91 0
8 -71 73 0
5 -71 78 0
1 -71 119 0
5 -71 127 0
5 -71 131 0
5 -70 -100 0
7 -70 105 0
7 -70 111 0
10 -70 129 0
7 -69 -130 0
7 -69 -81 0
3 -69 97 0
2 -69 124 0
9 -69 128 0
4 -69 130 0
9 -68 -116 0
8 -68 103 0
3 -68 104 0
5 -68 108 0
7 -68 128 0
10 -67 -140 0
1 -67 -133 0
3 -67 -120 0
4 -67 -113 0
2 -67 -79 0
2 -67 77 0
8 -67 78 0
2 -67 80 0
3 -67 102 0
8 -67 130 0
6 -66 -128 0
10 -66 -78 0
3 -66 67 0
6 -66 76 0
4 -65 -122 0
7 -65 -119 0
10 -65 -107 0
10 -65 -105 0
5 -65 85 0
10 -65 87 0
7 -65 122 0
2 -65 123 0
3 -65 136 0
8 -64 -128 0
10 -64 -77 0
6 -63 -128 0
8 -63 -103 0
8 -63 -87 0
9 -63 -68 0
2 -63 -66 0
6 -63 80 0
8 -62 -123 0
3 -62 -102 0
8 -62 115 0
3 -62 125 0
4 -62 131 0
9 -62 134 0
10 -61 -125 0
5 -61 -116 0
2 -61 -99 0
8 -61 97 0
1 -61 102 0
2 -61 133 0
10 -61 138 0
6 -60 -126 0
5 -60 -104 0
7 -60 72 0
6 -60 73 0
4 -60 103 0
2 -60 127 0
6 -59 -139 0
2 -59 -131 0
4 -59 -106 0
8 -59 -105 0
9 -59 -102 0
4 -59 -76 0
5 -59 -67 0
7 -59 66 0
2 -59 67 0
3 -59 77 0
8 -59 132 0
6 -58 -120 0
2 -58 -95 0
1 -58 -72 0
4 -58 97 0
3 -58 122 0
4 -57 -131 0
4 -57 -111 0
3 -57 -77 0
8 -57 -61 0
4 -57 85 0
1 -57 109 0
8 -57 113 0
5 -57 124 0
10 -56 -125 0
4 -56 -118 0
9 -56 61 0
7 -56 75 0
9 -56 85 0
3 -55 -116 0
8 -55 -71 0
5 -55 71 0
4 -55 76 0
2 -55 81 0
4 -54 -119 0
3 -54 -114 0
4 -54 -94 0
7 -54 -75 0
8 -54 -73 0
5 -54 -67 0
10 -54 58 0
7 -54 72 0
2 -54 80 0
1 -54 128 0
7 -53 -121 0
5 -53 78 0
3 -53 82 0
10 -53 83 0
7 -53 85 0
6 -53 132 0
8 -53 136 0
2 -52 -130 0
6 -52 -128 0
6 -52 -124 0
6 -52 -105 0
5 -52 -90 0
10 -52 71 0
4 -52 79 0
3 -52 83 0
9 -52 96 0
6 -52 119 0
1 -51 -130 0
4 -51 -114 0
9 -51 -91 0
2 -51 -61 0
7 -51 -54 0
1 -51 102 0
6 -51 105 0
4 -50 -130 0
9 -50 -114 0
10 -50 -90 0
4 -50 74 0
5 -50 121 0
1 -50 125 0
4 -50 130 0
2 -49 -139 0
5 -49 -81 0
6 -49 -68 0
2 -49 -65 0
2 -49 92 0
2 -49 99 0
9 -49 103 0
3 -48 -103 0
6 -48 53 0
6 -48 63 0
8 -48 68 0
2 -48 125 0
5 -48 131 0
2 -48 137 0
3 -47 -133 0
5 -47 -119 0
7 -47 -91 0
4 -47 49 0
8 -47 58 0
6 -47 61 0
5 -47 77 0
5 -47 81 0
6 -47 88 0
9 -47 91 0
9 -46 -117 0
5 -46 -62 0
9 -46 55 0
2 -46 71 0
10 -46 133 0
9 -45 -139 0
5 -45 -122 0
2 -45 -117 0
4 -45 -76 0
2 -45 63 0
3 -45 112 0
6 -45 133 0
3 -45 137 0
2 -44 -125 0
8 -44 -124 0
8 -44 -102 0
7 -44 -45 0
5 -44 51 0
9 -44 55 0
2 -44 76 0
6 -44 80 0
2 -44 84 0
6 -44 129 0
3 -43 -101 0
5 -43 -83 0
4 -43 -52 0
8 -43 65 0
8 -43 88 0
8 -43 90 0
5 -43 110 0
7 -43 115 0
7 -43 116 0
9 -42 -126 0
6 -42 -123 0
8 -42 -115 0
8 -42 -108 0
5 -42 -73 0
3 -42 54 0
9 -42 81 0
9 -42 98 0
4 -42 129 0
2 -41 -137 0
4 -41 -128 0
6 -41 -75 0
4 -41 -54 0
2 -41 68 0
4 -41 69 0
10 -41 71 0
7 -41 82 0
2 -41 107 0
2 -40 -117 0
3 -40 -76 0
3 -40 -46 0
7 -40 46 0
5 -40 66 0
7 -40 72 0
1 -40 76 0
3 -40 84 0
5 -40 98 0
9 -40 100 0
7 -39 -130 0
3 -39 -88 0
5 -39 -86 0
6 -39 -67 0
8 -39 -59 0
3 -38 -140 0
4 -38 -123 0
3 -38 -118 0
6 -38 -98 0
3 -38 -91 0
2 -38 -81 0
9 -38 -51 0
5 -38 -42 0
5 -38 48 0
5 -37 -98 0
7 -37 -65 0
6 -37 -61 0
7 -37 -45 0
7 -37 -44 0
3 -37 76 0
9 -37 81 0
8 -37 101 0
5 -37 111 0
2 -37 122 0
5 -36 -132 0
9 -36 -108 0
8 -36 -107 0
6 -36 -94 0
3 -36 -70 0
4 -36 -43 0
4 -36 66 0
9 -36 71 0
5 -36 110 0
8 -36 111 0
4 -35 -127 0
3 -35 -96 0
2 -35 44 0
7 -35 47 0
5 -35 50 0
7 -35 71 0
10 -35 104 0
6 -35 129 0
6 -34 -92 0
5 -34 -59 0
10 -34 -58 0
10 -34 -56 0
2 -34 51 0
6 -34 84 0
7 -34 91 0
8 -34 106 0
8 -33 -133 0
6 -33 -118 0
6 -33 -100 0
3 -33 -94 0
7 -33 -78 0
2 -33 -74 0
2 -33 -48 0
5 -33 79 0
6 -33 106 0
4 -33 125 0
8 -32 -140 0
9 -32 -123 0
3 -32 -94 0
3 -32 -44 0
8 -32 52 0
6 -32 111 0
5 -31 -126 0
9 -31 -78 0
3 -31 52 0
9 -31 65 0
5 -31 87 0
3 -31 102 0
5 -31 126 0
1 -30 -125 0
7 -30 -120 0
5 -30 -105 0
1 -30 -70 0
8 -30 46 0
10 -30 57 0
8 -30 66 0
6 -30 75 0
8 -30 78 0
4 -30 89 0
3 -30 94 0
10 -30 130 0
10 -29 -120 0
3 -29 -91 0
2 -29 -61 0
5 -29 -52 0
8 -29 30 0
5 -29 36 0
3 -29 37 0
7 -29 41 0
6 -29 43 0
6 -29 56 0
5 -28 -121 0
2 -28 -106 0
1 -28 -49 0
4 -28 -44 0
4 -28 -32 0
9 -28 -31 0
8 -28 46 0
7 -28 63 0
4 -28 101 0
9 -27 -137 0
4 -27 -82 0
8 -27 -54 0
9 -27 -46 0
2 -27 46 0
8 -27 53 0
7 -27 103 0
7 -27 124 0
6 -27 127 0
9 -26 -124 0
9 -26 -119 0
5 -26 -43 0
9 -26 -37 0
2 -26 -33 0
6 -26 52 0
5 -26 54 0
9 -26 67 0
10 -26 76 0
7 -26 81 0
7 -26 115 0
6 -25 -140 0
3 -25 -118 0
2 -25 -117 0
7 -25 -104 0
3 -25 -103 0
5 -25 -49 0
1 -25 -42 0
2 -25 -28 0
3 -25 -27 0
7 -25 43 0
5 -25 109 0
1 -24 -136 0
9 -24 -73 0
4 -24 -38 0
9 -24 -25 0
1 -24 69 0
2 -24 77 0
6 -24 83 0
8 -24 94 0
6 -24 119 0
5 -24 132 0
6 -23 -135 0
1 -23 -98 0
4 -23 -59 0
7 -23 -26 0
6 -23 25 0
8 -23 33 0
7 -23 49 0
6 -22 -137 0
5 -22 -90 0
4 -22 -64 0
1 -22 51 0
6 -22 68 0
4 -22 74 0
7 -22 80 0
8 -22 97 0
8 -22 98 0
7 -22 108 0
9 -22 113 0
10 -22 135 0
4 -21 -128 0
4 -21 -78 0
10 -21 -61 0
4 -21 32 0
7 -21 40 0
9 -21 62 0
4 -21 65 0
7 -21 130 0
4 -20 -136 0
1 -20 -125 0
4 -20 -68 0
8 -20 47 0
7 -20 57 0
4 -20 70 0
3 -20 116 0
4 -19 -124 0
9 -19 -76 0
9 -19 -70 0
10 -19 -53 0
5 -19 -29 0
4 -19 23 0
3 -19 72 0
5 -19 76 0
9 -18 -81 0
7 -18 -43 0
2 -18 37 0
7 -18 39 0
5 -18 60 0
9 -18 72 0
6 -18 129 0
5 -17 -119 0
3 -17 -49 0
9 -17 -30 0
4 -17 -21 0
5 -17 38 0
5 -16 -127 0
3 -16 -107 0
8 -16 -59 0
3 -16 42 0
6 -16 48 0
9 -16 65 0
5 -15 -116 0
5 -15 -107 0
5 -15 -87 0
8 -15 -84 0
6 -15 -52 0
8 -15 -47 0
7 -15 26 0
5 -15 29 0
8 -15 60 0
2 -15 70 0
8 -15 87 0
2 -15 121 0
6 -14 -93 0
8 -14 -34 0
8 -14 34 0
8 -14 57 0
4 -14 60 0
3 -14 70 0
6 -14 90 0
9 -14 101 0
6 -14 105 0
8 -14 108 0
8 -14 119 0
9 -13 -129 0
4 -13 -126 0
3 -13 -120 0
2 -13 -111 0
2 -13 -78 0
5 -13 -28 0
7 -13 20 0
9 -13 51 0
9 -13 52 0
2 -13 97 0
5 -13 117 0
7 -12 -139 0
7 -12 -91 0
3 -12 -77 0
5 -12 -70 0
3 -12 36 0
1 -12 50 0
6 -12 56 0
1 -12 76 0
2 -12 86 0
2 -11 -137 0
8 -11 -125 0
9 -11 -77 0
8 -11 -75 0
2 -11 -19 0
1 -11 22 0
5 -11 34 0
1 -11 49 0
6 -10 -137 0
3 -10 -60 0
8 -10 -19 0
6 -10 14 0
5 -10 92 0
10 -10 103 0
7 -9 -123 0
6 -9 -67 0
4 -9 -64 0
4 -9 -29 0
6 -9 36 0
4 -9 66 0
5 -9 94 0
9 -9 130 0
1 -9 131 0
2 -8 -120 0
2 -8 -95 0
5 -8 -89 0
4 -8 -40 0
3 -8 53 0
9 -8 81 0
4 -7 -130 0
4 -7 -99 0
1 -7 -83 0
2 -7 -64 0
2 -7 -58 0
8 -7 19 0
3 -7 28 0
2 -7 35 0
3 -7 39 0
3 -7 60 0
7 -7 62 0
5 -7 88 0
9 -7 103 0
3 -6 -110 0
10 -6 -50 0
9 -6 -41 0
9 -6 -14 0
6 -6 23 0
3 -6 49 0
3 -6 91 0
1 -6 101 0
6 -6 110 0
7 -6 111 0
10 -6 126 0
6 -5 -113 0
9 -5 -74 0
2 -5 -44 0
10 -5 -40 0
2 -5 -12 0
4 -5 21 0
9 -5 57 0
5 -5 86 0
6 -5 116 0
9 -4 -138 0
6 -4 -130 0
7 -4 -121 0
8 -4 -62 0
7 -4 -25 0
9 -4 -22 0
10 -4 39 0
9 -4 40 0
6 -4 42 0
5 -4 83 0
8 -4 139 0
8 -3 -138 0
5 -3 -101 0
7 -3 -79 0
7 -3 -27 0
9 -3 15 0
10 -3 26 0
9 -3 87 0
10 -3 94 0
6 -3 102 0
6 -3 135 0
10 -2 -126 0
2 -2 -98 0
5 -2 -13 0
2 -2 -9 0
2 -2 16 0
6 -2 31 0
4 -2 41 0
10 -2 45 0
1 -2 62 0
9 -2 93 0
9 -2 104 0
6 -2 119 0
7 -1 -110 0
7 -1 -97 0
4 -1 -79 0
5 -1 -77 0
7 -1 -72 0
3 -1 -6 0
1 -1 -2 0
2 -1 3 0
1 -1 15 0
8 -1 22 0
5 -1 52 0
8 -1 69 0
5 -1 73 0
5 -1 82 0
8 -1 103 0
4 1 -125 0
5 1 -99 0
3 1 -63 0
9 1 28 0
4 1 39 0
5 1 47 0
3 1 50 0
5 1 76 0
5 2 -133 0
8 2 -110 0
8 2 -70 0
5 2 -54 0
9 2 -44 0
7 2 -22 0
5 2 36 0
5 2 53 0
4 2 57 0
1 2 83 0
7 2 102 0
8 3 -138 0
7 3 -121 0
9 3 -117 0
8 3 -97 0
8 3 -91 0
9 3 -75 0
6 3 -58 0
3 3 -48 0
7 3 -46 0
1 3 -30 0
7 3 -18 0
5 3 -4 0
4 3 6 0
2 3 36 0
7 3 49 0
3 3 76 0
5 3 79 0
2 3 109 0
5 4 -128 0
9 4 -90 0
6 4 -77 0
3 4 -76 0
7 4 -13 0
1 4 19 0
2 4 86 0
4 4 106 0
5 5 -126 0
6 5 -76 0
7 5 -63 0
5 5 -40 0
3 5 -30 0
5 5 43 0
3 5 51 0
2 5 85 0
3 5 109 0
9 5 133 0
2 6 -92 0
8 6 -66 0
3 6 -31 0
8 6 -23 0
8 6 -10 0
9 6 21 0
2 6 57 0
2 6 78 0
9 6 115 0
8 6 118 0
4 6 137 0
4 7 -135 0
9 7 -119 0
7 7 -95 0
3 7 -50 0
5 7 -29 0
10 7 17 0
8 7 23 0
6 7 117 0
1 7 126 0
2 7 128 0
10 8 -111 0
6 8 -96 0
8 8 -90 0
5 8 -83 0
8 8 -74 0
2 8 -67 0
7 8 -50 0
9 8 -14 0
4 8 -9 0
6 8 15 0
10 8 32 0
2 8 62 0
8 8 82 0
8 8 103 0
9 9 -132 0
6 9 -113 0
9 9 -87 0
1 9 -38 0
5 9 26 0
8 9 31 0
4 9 53 0
8 9 73 0
7 9 76 0
1 9 89 0
10 9 93 0
2 9 98 0
10 9 114 0
8 9 128 0
6 10 -137 0
1 10 -99 0
9 10 -97 0
6 10 -94 0
6 10 -84 0
7 10 -70 0
1 10 -59 0
4 10 -58 0
8 10 -57 0
7 10 -35 0
3 10 -17 0
2 10 47 0
3 10 73 0
3 10 89 0
3 10 92 0
10 10 109 0
9 10 121 0
2 10 136 0
6 11 -115 0
8 11 -85 0
2 11 -71 0
10 11 -33 0
6 11 34 0
5 11 40 0
8 11 113 0
2 11 124 0
5 12 -131 0
8 12 -115 0
3 12 -89 0
5 12 -52 0
6 12 -41 0
9 12 -28 0
5 12 -13 0
5 12 21 0
5 12 25 0
10 12 36 0
1 12 69 0
5 12 90 0
3 12 99 0
9 12 107 0
2 12 110 0
5 12 128 0
10 13 -125 0
4 13 -124 0
7 13 -109 0
3 13 -35 0
3 13 -27 0
6 13 35 0
4 13 41 0
8 13 65 0
4 13 93 0
5 13 114 0
8 13 118 0
9 13 132 0
9 14 -99 0
6 14 -71 0
1 14 -38 0
4 14 -26 0
4 14 43 0
4 14 48 0
8 14 60 0
8 14 78 0
2 14 96 0
3 15 -115 0
3 15 -94 0
6 15 -66 0
2 15 -61 0
4 15 -59 0
1 15 27 0
5 15 43 0
2 15 55 0
2 15 129 0
9 15 137 0
2 16 -91 0
4 16 -88 0
5 16 -31 0
4 16 26 0
6 16 35 0
10 16 56 0
7 16 62 0
4 16 117 0
4 16 135 0
2 17 -70 0
2 17 -61 0
3 17 -60 0
2 17 38 0
7 17 118 0
3 17 129 0
5 17 140 0
9 18 -138 0
6 18 -129 0
3 18 -112 0
8 18 -109 0
7 18 -67 0
4 18 -57 0
1 18 -31 0
4 18 -26 0
6 18 19 0
4 18 41 0
4 18 88 0
9 18 89 0
5 19 -129 0
5 19 -72 0
8 19 -63 0
6 19 -35 0
8 19 21 0
3 19 33 0
9 19 88 0
4 19 118 0
3 19 126 0
6 20 -139 0
8 20 -119 0
6 20 -75 0
7 20 -64 0
9 20 -58 0
8 20 -52 0
8 20 -51 0
5 20 46 0
10 20 80 0
3 20 86 0
5 20 100 0
6 21 -116 0
4 21 -112 0
3 21 -111 0
3 21 -99 0
8 21 -40 0
3 21 -37 0
6 21 74 0
4 21 78 0
5 21 119 0
9 22 -137 0
3 22 -134 0
9 22 -116 0
3 22 -104 0
10 22 -45 0
5 22 -31 0
1 22 34 0
3 22 44 0
4 22 48 0
5 22 69 0
4 22 77 0
9 22 131 0
3 23 -114 0
9 23 -96 0
6 23 -91 0
1 23 -85 0
7 23 -67 0
3 23 -59 0
5 23 -34 0
7 23 31 0
5 23 33 0
9 23 62 0
3 23 65 0
8 23 71 0
2 23 85 0
5 23 90 0
6 23 99 0
4 23 103 0
10 23 117 0
9 23 129 0
8 24 -137 0
9 24 -117 0
1 24 -112 0
7 24 -66 0
2 24 -45 0
10 24 -41 0
2 24 -35 0
3 24 32 0
3 24 118 0
5 25 -113 0
7 25 -110 0
6 25 -108 0
3 25 -98 0
8 25 -58 0
5 25 -47 0
8 25 -43 0
8 25 58 0
2 25 106 0
1 25 111 0
4 25 124 0
8 25 131 0
5 25 132 0
3 26 -121 0
1 26 -115 0
3 26 -32 0
4 26 -29 0
5 26 32 0
8 26 36 0
6 26 63 0
5 26 67 0
7 26 74 0
4 26 99 0
4 26 101 0
7 26 118 0
1 26 129 0
5 27 -138 0
7 27 -115 0
2 27 -98 0
7 27 -45 0
9 27 -28 0
6 27 31 0
3 27 43 0
5 27 100 0
9 27 118 0
1 27 124 0
9 27 136 0
7 27 139 0
9 28 -71 0
2 28 -36 0
7 28 -31 0
2 28 68 0
9 28 118 0
3 29 -71 0
4 29 -50 0
9 29 30 0
5 29 44 0
7 29 87 0
5 29 91 0
4 30 -119 0
3 30 -98 0
9 30 -96 0
9 30 -59 0
6 30 -41 0
3 30 40 0
7 30 73 0
6 30 90 0
7 30 127 0
4 31 -66 0
8 31 -59 0
3 31 -35 0
3 31 39 0
4 31 82 0
6 31 98 0
7 31 100 0
3 31 131 0
6 31 133 0
6 32 -59 0
9 32 -48 0
4 32 43 0
7 32 48 0
6 32 61 0
6 32 113 0
6 32 119 0
8 33 84 0
9 33 92 0
5 33 103 0
3 33 112 0
6 34 -102 0
9 34 -79 0
5 34 -61 0
8 34 40 0
8 34 48 0
5 34 63 0
5 34 66 0
9 34 89 0
2 35 -85 0
1 35 -70 0
6 35 -61 0
5 35 -56 0
8 35 42 0
9 35 72 0
7 35 74 0
2 35 88 0
4 35 115 0
3 35 117 0
4 36 -120 0
9 36 -111 0
8 36 -62 0
3 36 -61 0
4 36 -50 0
5 37 -138 0
8 37 -124 0
8 37 92 0
1 37 95 0
5 37 128 0
8 38 -103 0
5 38 -70 0
7 38 -52 0
4 38 -42 0
4 38 57 0
2 38 78 0
2 39 -125 0
2 39 -121 0
6 39 -101 0
6 39 -84 0
1 39 -54 0
7 39 69 0
6 39 129 0
7 39 139 0
1 40 -112 0
4 40 -104 0
5 40 -96 0
7 40 -92 0
5 40 -42 0
9 40 64 0
9 40 97 0
8 40 98 0
8 40 103 0
8 41 -63 0
10 41 65 0
1 41 67 0
3 41 68 0
7 42 -96 0
9 42 -87 0
3 42 -75 0
3 42 -72 0
6 42 -67 0
8 42 -49 0
9 42 49 0
9 42 63 0
2 42 117 0
1 42 120 0
10 43 -94 0
3 43 -81 0
7 43 -63 0
5 43 -59 0
3 43 87 0
4 43 111 0
1 43 136 0
9 44 -136 0
4 44 -130 0
4 44 -125 0
4 44 -116 0
10 44 -111 0
7 44 -102 0
3 44 -101 0
9 44 -91 0
5 44 -56 0
9 44 -48 0
7 45 -136 0
5 45 -98 0
10 45 -80 0
9 45 -67 0
2 45 -56 0
8 45 -49 0
3 45 -46 0
4 45 61 0
4 45 65 0
9 45 82 0
3 45 134 0
3 46 -129 0
1 46 -127 0
3 46 -120 0
3 46 -118 0
3 46 -109 0
9 46 -95 0
7 46 73 0
5 46 138 0
2 47 -87 0
7 47 -85 0
4 47 -84 0
5 47 -77 0
10 47 101 0
7 47 126 0
5 48 -137 0
7 48 -83 0
9 48 -78 0
5 48 -72 0
3 48 -53 0
9 48 -52 0
2 48 -49 0
6 48 77 0
8 48 79 0
1 48 107 0
8 49 -127 0
6 49 -115 0
3 49 -81 0
1 49 80 0
10 49 81 0
2 50 -95 0
3 50 -87 0
3 50 -77 0
2 50 52 0
5 50 77 0
4 50 86 0
4 51 -130 0
4 51 -129 0
2 51 -120 0
8 51 -90 0
6 51 -67 0
8 51 54 0
2 51 62 0
1 51 94 0
8 51 113 0
8 52 -72 0
5 52 57 0
5 52 137 0
7 52 140 0
9 53 -121 0
7 53 -93 0
6 53 -83 0
1 53 -64 0
4 53 -55 0
4 53 75 0
1 53 79 0
1 53 134 0
9 54 -131 0
3 54 -112 0
1 54 -94 0
9 54 -67 0
4 54 56 0
4 54 67 0
2 54 92 0
5 54 104 0
8 54 124 0
5 55 -76 0
8 55 78 0
2 55 88 0
6 55 92 0
5 55 128 0
7 56 -124 0
4 56 -112 0
6 56 -70 0
7 56 -57 0
2 56 60 0
5 56 69 0
3 56 110 0
6 56 122 0
2 57 -124 0
2 57 -117 0
3 57 -109 0
7 57 -104 0
2 57 -89 0
6 57 79 0
10 57 85 0
2 57 115 0
6 57 128 0
9 58 -122 0
4 58 -93 0
6 58 -69 0
8 58 64 0
6 58 85 0
9 59 -107 0
9 59 -102 0
1 59 -78 0
6 59 90 0
4 59 94 0
8 59 100 0
8 59 133 0
9 60 -119 0
3 60 72 0
5 60 87 0
2 60 103 0
8 60 132 0
2 60 139 0
3 61 -113 0
3 61 -106 0
3 61 -97 0
8 61 -92 0
4 61 -87 0
4 61 -83 0
10 61 -73 0
10 61 -63 0
4 61 71 0
5 61 83 0
10 61 122 0
5 62 -138 0
1 62 -136 0
9 62 -110 0
8 62 66 0
6 62 68 0
7 62 93 0
4 62 117 0
5 63 -138 0
6 63 -65 0
5 63 76 0
1 63 103 0
9 63 113 0
2 63 121 0
8 64 -86 0
7 64 -78 0
4 64 82 0
2 64 95 0
9 64 104 0
3 64 105 0
3 65 -138 0
2 65 -126 0
5 65 -110 0
5 66 -82 0
8 66 78 0
8 67 -126 0
8 67 -113 0
8 67 87 0
8 67 130 0
2 68 -126 0
4 68 -114 0
7 68 -87 0
7 68 -76 0
4 68 96 0
6 68 131 0
5 69 -86 0
9 69 -85 0
3 69 -84 0
8 69 70 0
3 69 85 0
8 69 95 0
3 69 113 0
4 69 114 0
6 70 -128 0
4 70 -88 0
1 70 73 0
4 70 82 0
8 70 89 0
3 70 120 0
3 70 126 0
9 71 76 0
5 71 108 0
3 71 109 0
4 71 127 0
9 72 -119 0
2 72 -104 0
2 72 -81 0
7 72 79 0
9 72 108 0
9 72 121 0
8 72 123 0
2 72 125 0
6 72 137 0
4 73 -114 0
5 73 -109 0
2 73 -106 0
8 73 -94 0
4 73 -86 0
3 73 91 0
6 73 95 0
6 73 105 0
1 73 106 0
8 73 110 0
9 74 -138 0
6 74 80 0
2 74 134 0
9 75 -132 0
9 75 -128 0
8 75 94 0
2 75 121 0
2 76 -106 0
8 76 -90 0
6 76 -88 0
4 76 133 0
2 76 139 0
4 77 -131 0
5 77 -123 0
4 77 -113 0
1 77 -112 0
4 77 91 0
2 77 134 0
8 78 -138 0
5 78 -137 0
7 78 -129 0
2 78 -94 0
9 78 -92 0
8 78 -84 0
9 78 -80 0
3 78 109 0
1 78 115 0
5 78 116 0
8 78 136 0
1 79 -137 0
3 79 -122 0
7 79 -101 0
7 79 -99 0
4 79 131 0
6 80 -85 0
6 80 119 0
3 81 -139 0
7 81 102 0
7 81 111 0
9 81 114 0
2 81 137 0
2 82 -129 0
2 82 -121 0
6 82 110 0
6 83 -112 0
4 83 100 0
6 83 114 0
8 83 138 0
6 84 -126 0
4 84 -121 0
3 84 -102 0
3 84 122 0
5 85 -107 0
2 85 -106 0
1 85 104 0
4 85 124 0
4 86 -120 0
1 86 -93 0
9 86 136 0
2 87 -134 0
2 87 -125 0
2 87 -102 0
8 87 105 0
8 87 107 0
5 88 -126 0
4 88 -116 0
4 88 -111 0
6 88 -107 0
10 89 -140 0
1 89 -129 0
6 89 -128 0
2 89 -111 0
2 89 119 0
6 89 134 0
7 90 -96 0
6 90 108 0
10 90 118 0
3 91 -132 0
4 91 -92 0
6 91 101 0
6 91 119 0
7 92 -139 0
8 92 -133 0
10 92 97 0
8 92 136 0
8 93 -130 0
4 93 -125 0
3 93 101 0
8 94 -111 0
2 95 -139 0
4 95 -125 0
9 95 -119 0
3 95 128 0
2 96 -124 0
6 96 101 0
7 96 140 0
5 97 100 0
9 97 107 0
3 97 117 0
5 97 138 0
9 98 -125 0
7 98 -119 0
6 98 -111 0
1 98 100 0
4 98 110 0
3 98 120 0
6 98 137 0
4 99 -123 0
4 99 -112 0
10 99 -108 0
8 99 -104 0
9 100 -124 0
7 100 102 0
6 100 106 0
9 100 134 0
5 101 122 0
4 102 112 0
2 102 115 0
7 103 -128 0
2 103 -126 0
4 103 -123 0
10 103 115 0
1 103 121 0
6 103 128 0
2 103 133 0
7 103 139 0
2 104 125 0
6 104 130 0
6 105 131 0
4 106 -124 0
9 106 131 0
5 106 137 0
2 107 -113 0
5 107 134 0
6 108 -125 0
5 108 -121 0
6 108 112 0
2 109 130 0
7 109 133 0
9 109 135 0
2 110 127 0
6 111 -121 0
8 111 -116 0
8 111 113 0
2 112 -130 0
7 112 121 0
3 113 -136 0
5 113 -134 0
8 113 -115 0
8 114 -140 0
6 114 115 0
2 115 -129 0
8 115 -127 0
6 115 -121 0
6 115 -120 0
9 115 -117 0
3 116 -130 0
8 116 137 0
4 118 -128 0
8 118 134 0
2 121 128 0
3 122 -137 0
3 122 -134 0
2 122 -129 0
7 122 -125 0
8 122 -123 0
6 123 131 0
3 124 -136 0
9 124 -126 0
3 125 -137 0
2 125 -129 0
10 125 129 0
8 125 131 0
10 127 -130 0
7 128 129 0
9 129 -131 0
7 130 -137 0
9 131 -134 0
3 133 140 0
5 134 -138 0
7 134 -135 0
9 134 136 0
6 135 139 0
5 137 138 0
